c turning on binary mode checking
c parsing input formula with 259840 variables and 1039924 clauses
c finished parsing, read 2722525 bytes from proof file
c detected empty clause; start verification via backward checking
c 887 of 1039924 clauses in core                            
c 256 of 110166 lemmas in core using 6229 resolution steps
c 0 RAT lemmas in core; 8 redundant literals in core lemmas
s VERIFIED
c verification time: 1.025 seconds
